1110497
83,21,24,77,50,53,97,89,58,18,11,16,25,93,39,78,28,23,42,51,6,65,3,47,0,56,46,94,72,64,22,10,27,70,33,45,66,60,14,82,87,75,37,79,98,67,62,12,31,73,69,32,8,19,20,95,29,76,17,40,5,71,35,49,96,41,34,1,26,63,4,2,84,88,7,52,90,43,54,74,68,55,9,48,92,61,30,59,36,86,44,80,85,15,57,81,13,38,91,83